c Random generated cnf formula, satisfiable: true
p cnf 10 50
9 -4 -2 0
1 3 10 0
4 -10 -9 0
-6 -5 -4 0
2 5 7 0
-8 -2 -9 0
-1 4 -9 0
7 -2 9 0
1 -9 -10 0
-7 2 3 0
3 -4 -1 0
6 -7 8 0
2 5 1 0
2 -6 -1 0
3 -9 -5 0
5 2 -1 0
-7 1 -5 0
7 -6 1 0
-1 6 -3 0
4 -3 1 0
3 -7 -1 0
-7 2 -9 0
8 -9 10 0
8 -5 4 0
-3 -7 8 0
4 3 -1 0
9 6 1 0
4 10 1 0
-5 7 9 0
-10 8 -2 0
-10 6 -2 0
3 -6 -8 0
6 -10 7 0
5 1 9 0
6 4 -10 0
3 -5 4 0
1 6 8 0
8 -1 7 0
-8 1 -5 0
2 -9 7 0
-10 3 5 0
9 1 4 0
-3 -4 -10 0
-8 4 7 0
6 9 -4 0
-5 9 -4 0
9 -4 -6 0
-6 7 -3 0
5 1 -8 0
4 5 8 0
